29010559322 F 1929-01-05
85240762105 F 2085-04-07
16060852772 M 1916-06-08
46050751428 F 1946-05-07
93060785259 M 1993-06-07
36032319379 M 1936-03-23
09100895479 M 1909-10-08
31111617405 F 1931-11-16
66322591480 F 2066-12-25
37281232264 F 2037-08-12
